0 490
1 482
2 458
3 454
4 448
6 440
7 432
8 420
14 400
17 370
19 348
21 324
23 316
29 308
43 296
45 280
74 272
80 260
82 256
83 250
116 246
121 222
123 210
124 198
130 194
137 192
199 184
236 182
252 178
438 170
3705 168
3889 164
3934 162
4052 160
4256 156
52003 152
